(set-logic QF_LRA)
(declare-fun X0 () Real )
(declare-fun Y0 () Real )
(declare-fun X1 () Real )
(declare-fun Y1 () Real )
(declare-fun X2 () Real )
(declare-fun Y2 () Real )
(declare-fun X3 () Real )
(declare-fun Y3 () Real )
(declare-fun X4 () Real )
(declare-fun Y4 () Real )
(declare-fun X5 () Real )
(declare-fun Y5 () Real )
(declare-fun X6 () Real )
(declare-fun Y6 () Real )
(declare-fun X7 () Real )
(declare-fun Y7 () Real )
(declare-fun X8 () Real )
(declare-fun Y8 () Real )
(declare-fun Z () Real )
(assert ( and  
( or ( <= ( + X0 25 ) X1 )  ( <= ( + X1 21 ) X0 )  ( <= ( + Y0 74 ) Y1 )  ( <= ( + Y1 93 ) Y0 )  )
( or ( <= ( + X0 25 ) X2 )  ( <= ( + X2 84 ) X0 )  ( <= ( + Y0 74 ) Y2 )  ( <= ( + Y2 73 ) Y0 )  )
( or ( <= ( + X0 25 ) X3 )  ( <= ( + X3 66 ) X0 )  ( <= ( + Y0 74 ) Y3 )  ( <= ( + Y3 34 ) Y0 )  )
( or ( <= ( + X0 25 ) X4 )  ( <= ( + X4 72 ) X0 )  ( <= ( + Y0 74 ) Y4 )  ( <= ( + Y4 34 ) Y0 )  )
( or ( <= ( + X0 25 ) X5 )  ( <= ( + X5 39 ) X0 )  ( <= ( + Y0 74 ) Y5 )  ( <= ( + Y5 14 ) Y0 )  )
( or ( <= ( + X0 25 ) X6 )  ( <= ( + X6 14 ) X0 )  ( <= ( + Y0 74 ) Y6 )  ( <= ( + Y6 39 ) Y0 )  )
( or ( <= ( + X0 25 ) X7 )  ( <= ( + X7 28 ) X0 )  ( <= ( + Y0 74 ) Y7 )  ( <= ( + Y7 79 ) Y0 )  )
( or ( <= ( + X0 25 ) X8 )  ( <= ( + X8 60 ) X0 )  ( <= ( + Y0 74 ) Y8 )  ( <= ( + Y8 30 ) Y0 )  )
( or ( <= ( + X1 21 ) X2 )  ( <= ( + X2 84 ) X1 )  ( <= ( + Y1 93 ) Y2 )  ( <= ( + Y2 73 ) Y1 )  )
( or ( <= ( + X1 21 ) X3 )  ( <= ( + X3 66 ) X1 )  ( <= ( + Y1 93 ) Y3 )  ( <= ( + Y3 34 ) Y1 )  )
( or ( <= ( + X1 21 ) X4 )  ( <= ( + X4 72 ) X1 )  ( <= ( + Y1 93 ) Y4 )  ( <= ( + Y4 34 ) Y1 )  )
( or ( <= ( + X1 21 ) X5 )  ( <= ( + X5 39 ) X1 )  ( <= ( + Y1 93 ) Y5 )  ( <= ( + Y5 14 ) Y1 )  )
( or ( <= ( + X1 21 ) X6 )  ( <= ( + X6 14 ) X1 )  ( <= ( + Y1 93 ) Y6 )  ( <= ( + Y6 39 ) Y1 )  )
( or ( <= ( + X1 21 ) X7 )  ( <= ( + X7 28 ) X1 )  ( <= ( + Y1 93 ) Y7 )  ( <= ( + Y7 79 ) Y1 )  )
( or ( <= ( + X1 21 ) X8 )  ( <= ( + X8 60 ) X1 )  ( <= ( + Y1 93 ) Y8 )  ( <= ( + Y8 30 ) Y1 )  )
( or ( <= ( + X2 84 ) X3 )  ( <= ( + X3 66 ) X2 )  ( <= ( + Y2 73 ) Y3 )  ( <= ( + Y3 34 ) Y2 )  )
( or ( <= ( + X2 84 ) X4 )  ( <= ( + X4 72 ) X2 )  ( <= ( + Y2 73 ) Y4 )  ( <= ( + Y4 34 ) Y2 )  )
( or ( <= ( + X2 84 ) X5 )  ( <= ( + X5 39 ) X2 )  ( <= ( + Y2 73 ) Y5 )  ( <= ( + Y5 14 ) Y2 )  )
( or ( <= ( + X2 84 ) X6 )  ( <= ( + X6 14 ) X2 )  ( <= ( + Y2 73 ) Y6 )  ( <= ( + Y6 39 ) Y2 )  )
( or ( <= ( + X2 84 ) X7 )  ( <= ( + X7 28 ) X2 )  ( <= ( + Y2 73 ) Y7 )  ( <= ( + Y7 79 ) Y2 )  )
( or ( <= ( + X2 84 ) X8 )  ( <= ( + X8 60 ) X2 )  ( <= ( + Y2 73 ) Y8 )  ( <= ( + Y8 30 ) Y2 )  )
( or ( <= ( + X3 66 ) X4 )  ( <= ( + X4 72 ) X3 )  ( <= ( + Y3 34 ) Y4 )  ( <= ( + Y4 34 ) Y3 )  )
( or ( <= ( + X3 66 ) X5 )  ( <= ( + X5 39 ) X3 )  ( <= ( + Y3 34 ) Y5 )  ( <= ( + Y5 14 ) Y3 )  )
( or ( <= ( + X3 66 ) X6 )  ( <= ( + X6 14 ) X3 )  ( <= ( + Y3 34 ) Y6 )  ( <= ( + Y6 39 ) Y3 )  )
( or ( <= ( + X3 66 ) X7 )  ( <= ( + X7 28 ) X3 )  ( <= ( + Y3 34 ) Y7 )  ( <= ( + Y7 79 ) Y3 )  )
( or ( <= ( + X3 66 ) X8 )  ( <= ( + X8 60 ) X3 )  ( <= ( + Y3 34 ) Y8 )  ( <= ( + Y8 30 ) Y3 )  )
( or ( <= ( + X4 72 ) X5 )  ( <= ( + X5 39 ) X4 )  ( <= ( + Y4 34 ) Y5 )  ( <= ( + Y5 14 ) Y4 )  )
( or ( <= ( + X4 72 ) X6 )  ( <= ( + X6 14 ) X4 )  ( <= ( + Y4 34 ) Y6 )  ( <= ( + Y6 39 ) Y4 )  )
( or ( <= ( + X4 72 ) X7 )  ( <= ( + X7 28 ) X4 )  ( <= ( + Y4 34 ) Y7 )  ( <= ( + Y7 79 ) Y4 )  )
( or ( <= ( + X4 72 ) X8 )  ( <= ( + X8 60 ) X4 )  ( <= ( + Y4 34 ) Y8 )  ( <= ( + Y8 30 ) Y4 )  )
( or ( <= ( + X5 39 ) X6 )  ( <= ( + X6 14 ) X5 )  ( <= ( + Y5 14 ) Y6 )  ( <= ( + Y6 39 ) Y5 )  )
( or ( <= ( + X5 39 ) X7 )  ( <= ( + X7 28 ) X5 )  ( <= ( + Y5 14 ) Y7 )  ( <= ( + Y7 79 ) Y5 )  )
( or ( <= ( + X5 39 ) X8 )  ( <= ( + X8 60 ) X5 )  ( <= ( + Y5 14 ) Y8 )  ( <= ( + Y8 30 ) Y5 )  )
( or ( <= ( + X6 14 ) X7 )  ( <= ( + X7 28 ) X6 )  ( <= ( + Y6 39 ) Y7 )  ( <= ( + Y7 79 ) Y6 )  )
( or ( <= ( + X6 14 ) X8 )  ( <= ( + X8 60 ) X6 )  ( <= ( + Y6 39 ) Y8 )  ( <= ( + Y8 30 ) Y6 )  )
( or ( <= ( + X7 28 ) X8 )  ( <= ( + X8 60 ) X7 )  ( <= ( + Y7 79 ) Y8 )  ( <= ( + Y8 30 ) Y7 )  )
( >= X0 0)
( <= ( + X0 25) Z)
( >= Y0 0)
( <= ( + Y0 74 ) 100)
( >= X1 0)
( <= ( + X1 21) Z)
( >= Y1 0)
( <= ( + Y1 93 ) 100)
( >= X2 0)
( <= ( + X2 84) Z)
( >= Y2 0)
( <= ( + Y2 73 ) 100)
( >= X3 0)
( <= ( + X3 66) Z)
( >= Y3 0)
( <= ( + Y3 34 ) 100)
( >= X4 0)
( <= ( + X4 72) Z)
( >= Y4 0)
( <= ( + Y4 34 ) 100)
( >= X5 0)
( <= ( + X5 39) Z)
( >= Y5 0)
( <= ( + Y5 14 ) 100)
( >= X6 0)
( <= ( + X6 14) Z)
( >= Y6 0)
( <= ( + Y6 39 ) 100)
( >= X7 0)
( <= ( + X7 28) Z)
( >= Y7 0)
( <= ( + Y7 79 ) 100)
( >= X8 0)
( <= ( + X8 60) Z)
( >= Y8 0)
( <= ( + Y8 30 ) 100)
) )
(minimize Z)
(check-sat)
